c This is QMaxSAT 2017 based on 14.07
c This is Glucose 3.0
c This is MiniSat 2.2.0
c WARNING: for repeatability, setting FPU to use double precision
c card = mrwto, comp = 0, pmodel = 0, narr = 4, mct = 29, verb = 0
cr firstCPXsol 0 0 0
c top = 167313
c |  Number of variables:    24532                                            |
c |  Number of clauses:      8079464                                          |
c |  Weight of hard clauses: 167313                                           |
c |  Number of soft clauses: 3248                                             |
c |  Number of unit soft clauses: 3248                                        |
c |  Maximum Cardinality (by unit): 669248       (669248      )               |
c last restart ## conflicts  :  109 16612 
o 1614 | cpuTime 0.706052 s
c Sum of weights = 167312
c A number of soft clauses remained = 812
c MRWTO encoding for Pseudo-Boolean Constraints
c sizeMax=1614
c No.0 Divisor=12	generated by pow1
c No.1 Divisor=12	generated by pow1
c No.2 Divisor=12	generated by pow1
c p0= 12	p1= 12	p2= 12	
c number of digits = 4
c linkingVar[0].size = 12, linkingVar[1].size = 12, linkingVar[2].size = 12, linkingVar[3].size = 1, 
c Pseudo-Boolean Constraints: 19135 variables and 188610 clauses
c Sum of weights = 167312
c A number of soft clauses remained = 812
c MRWTO encoding for Pseudo-Boolean Constraints
c sizeMax=1614
c No.0 Divisor=12	generated by pow1
c No.1 Divisor=12	generated by pow1
c No.2 Divisor=12	generated by pow1
c p0= 12	p1= 12	p2= 12	
c number of digits = 4
c linkingVar[0].size = 12, linkingVar[1].size = 12, linkingVar[2].size = 12, linkingVar[3].size = 1, 
c Pseudo-Boolean Constraints: 19135 variables and 188610 clauses
c Sum of weights = 167312
c A number of soft clauses remained = 812
c MRWTO encoding for Pseudo-Boolean Constraints
c sizeMax=1614
c No.0 Divisor=12	generated by pow1
c No.1 Divisor=12	generated by pow1
c No.2 Divisor=12	generated by pow1
c p0= 12	p1= 12	p2= 12	
c number of digits = 4
c linkingVar[0].size = 12, linkingVar[1].size = 12, linkingVar[2].size = 12, linkingVar[3].size = 1, 
c Pseudo-Boolean Constraints: 19135 variables and 188610 clauses
c Sum of weights = 167312
c A number of soft clauses remained = 812
c MRWTO encoding for Pseudo-Boolean Constraints
c sizeMax=1614
c No.0 Divisor=12	generated by pow1
c No.1 Divisor=12	generated by pow1
c No.2 Divisor=12	generated by pow1
c p0= 12	p1= 12	p2= 12	
c number of digits = 4
c linkingVar[0].size = 12, linkingVar[1].size = 12, linkingVar[2].size = 12, linkingVar[3].size = 1, 
c Pseudo-Boolean Constraints: 19135 variables and 188610 clauses
c last restart ## conflicts  :  232 9327 
o 1314 | cpuTime 8.35881 s
c last restart ## conflicts  :  1107 8498 
o 1268 | cpuTime 17.4877 s
c last restart ## conflicts  :  285 10957 
o 1266 | cpuTime 17.7533 s
c last restart ## conflicts  :  479 7749 
o 1127 | cpuTime 46.3741 s
c last restart ## conflicts  :  1805 7658 
o 1123 | cpuTime 51.2969 s
c last restart ## conflicts  :  1432 8886 
o 1083 | cpuTime 68.2956 s
c last restart ## conflicts  :  748 8452 
o 998 | cpuTime 1171.95 s
c last restart ## conflicts  :  241 13734 
o 989 | cpuTime 1763.84 s
c last restart ## conflicts  :  805 8548 
o 975 | cpuTime 2929.7 s
s UNKNOWN
c Search is stopped by a limit (maybe time-limit)
cr positiVarArr: [ | 9@1(1->9) | 87@1(3->29) | 142@1(5->26) | 237@1(9->5) | 639@1(23->1) | 728@1(26->3) | 777@1(27->23) | 839@1(29->27) | 857@2(1->16) | 1236@2(14->18) | 1248@2(15->1) | 1293@2(16->17) | 1327@2(17->22) | 1349@2(18->15) | 1464@2(22->14) | 1710@3(1->28) | 1735@3(2->24) | 1789@3(4->20) | 1839@3(6->12) | 2022@3(12->21) | 2031@3(13->1) | 2246@3(20->13) | 2264@3(21->2) | 2353@3(24->4) | 2471@3(28->6) | 2533@4(1->10) | 2705@4(7->8) | 2727@4(8->1) | 2795@4(10->11) | 2838@4(11->25) | 3052@4(19->7) | 3238@4(25->19) | ]
cr the 1-th chain: [ 1->9->5->26->3->29->27->23->1 ] (#non-depot=7) {#cumul.=8}
cr the 2-th chain: [ 1->16->17->22->14->18->15->1 ] (#non-depot=6) {#cumul.=14}
cr the 3-th chain: [ 1->28->6->12->21->2->24->4->20->13->1 ] (#non-depot=9) {#cumul.=23}
cr the 4-th chain: [ 1->10->11->25->19->7->8->1 ] (#non-depot=6) {#cumul.=29}
c Latest Answer = 0 by 10 loops
c restarts              : 87957
c conflicts             : 15377040       (4285 /sec)
c decisions             : 113215215      (0.00 % random) (31551 /sec)
c propagations          : 18019266229    (5021715 /sec)
c conflict literals     : 3458500465     (27.76 % deleted)
c Memory used           : 1225.00 MB
c CPU time              : 3588.27 s
